100 90 10
0 1 0
1 2 0
2 3 0
3 4 0
4 5 0
5 6 0
6 7 0
7 8 0
8 9 0
10 11 1
11 12 1
12 13 1
13 14 1
14 15 1
15 16 1
16 17 1
17 18 1
18 19 1
20 21 2
21 22 2
22 23 2
23 24 2
24 25 2
25 26 2
26 27 2
27 28 2
28 29 2
30 31 3
31 32 3
32 33 3
33 34 3
34 35 3
35 36 3
36 37 3
37 38 3
38 39 3
40 41 4
41 42 4
42 43 4
43 44 4
44 45 4
45 46 4
46 47 4
47 48 4
48 49 4
50 51 5
51 52 5
52 53 5
53 54 5
54 55 5
55 56 5
56 57 5
57 58 5
58 59 5
60 61 6
61 62 6
62 63 6
63 64 6
64 65 6
65 66 6
66 67 6
67 68 6
68 69 6
70 71 7
71 72 7
72 73 7
73 74 7
74 75 7
75 76 7
76 77 7
77 78 7
78 79 7
80 81 8
81 82 8
82 83 8
83 84 8
84 85 8
85 86 8
86 87 8
87 88 8
88 89 8
90 91 9
91 92 9
92 93 9
93 94 9
94 95 9
95 96 9
96 97 9
97 98 9
98 99 9
1 0 8
1 1 10
1 2 35
1 3 44
1 4 15
1 5 92
1 6 70
1 7 89
1 8 50
1 9 12
1 0 63
1 8 39
1 3 80
1 5 22
1 2 88
1 1 39
1 9 85
1 6 27
1 7 74
1 4 69
1 0 52
1 6 22
1 1 33
1 3 68
1 8 27
1 2 68
1 5 25
1 4 34
1 7 24
1 9 84
1 0 31
1 1 85
1 4 55
1 8 80
1 5 58
1 7 11
1 6 69
1 9 56
1 3 73
1 2 25
1 0 97
1 5 98
1 9 87
1 8 47
1 7 77
1 4 90
1 3 98
1 2 80
1 1 39
1 6 40
1 1 97
1 5 68
1 0 44
1 9 67
1 2 44
1 8 85
1 3 78
1 6 90
1 7 33
1 4 81
1 0 34
1 3 76
1 8 48
1 7 61
1 9 11
1 2 36
1 4 33
1 6 98
1 1 7
1 5 44
1 0 44
1 9 5
1 4 85
1 1 51
1 5 58
1 7 79
1 2 95
1 6 48
1 3 86
1 8 73
1 0 24
1 1 63
1 9 48
1 7 77
1 8 73
1 6 74
1 4 63
1 5 17
1 2 93
1 3 84
1 0 51
1 2 5
1 4 40
1 9 60
1 1 46
1 5 58
1 8 54
1 3 72
1 6 29
1 7 94